\ Model VRP
\ LP format - for model browsing. Use MPS format to capture full model detail.
Minimize
  1476 x[0,1,0] + 1476 x[0,1,1] + 1476 x[0,1,2] + 1987.2 x[0,2,0]
   + 1987.2 x[0,2,1] + 1987.2 x[0,2,2] + 2224.8 x[0,3,0] + 2224.8 x[0,3,1]
   + 2224.8 x[0,3,2] + 2936 x[1,4,0] + 2936 x[1,4,1] + 2936 x[1,4,2]
   + 2936 x[1,5,0] + 2936 x[1,5,1] + 2936 x[1,5,2] + 2936 x[1,6,0]
   + 2936 x[1,6,1] + 2936 x[1,6,2] + 2936 x[1,7,0] + 2936 x[1,7,1]
   + 2936 x[1,7,2] + 2936 x[1,8,0] + 2936 x[1,8,1] + 2936 x[1,8,2]
   + 866 x[2,4,0] + 866 x[2,4,1] + 866 x[2,4,2] + 866 x[2,5,0]
   + 866 x[2,5,1] + 866 x[2,5,2] + 866 x[2,6,0] + 866 x[2,6,1]
   + 866 x[2,6,2] + 866 x[2,7,0] + 866 x[2,7,1] + 866 x[2,7,2]
   + 866 x[2,8,0] + 866 x[2,8,1] + 866 x[2,8,2] + 3300 x[3,4,0]
   + 3300 x[3,4,1] + 3300 x[3,4,2] + 3300 x[3,5,0] + 3300 x[3,5,1]
   + 3300 x[3,5,2] + 3300 x[3,6,0] + 3300 x[3,6,1] + 3300 x[3,6,2]
   + 3300 x[3,7,0] + 3300 x[3,7,1] + 3300 x[3,7,2] + 3300 x[3,8,0]
   + 3300 x[3,8,1] + 3300 x[3,8,2] + 168 x[4,5,0] + 168 x[4,5,1]
   + 168 x[4,5,2] + 472 x[4,6,0] + 472 x[4,6,1] + 472 x[4,6,2]
   + 1898 x[4,7,0] + 1898 x[4,7,1] + 1898 x[4,7,2] + 2568 x[4,8,0]
   + 2568 x[4,8,1] + 2568 x[4,8,2] + 168 x[5,4,0] + 168 x[5,4,1]
   + 168 x[5,4,2] + 424 x[5,6,0] + 424 x[5,6,1] + 424 x[5,6,2]
   + 1936 x[5,7,0] + 1936 x[5,7,1] + 1936 x[5,7,2] + 2409 x[5,8,0]
   + 2409 x[5,8,1] + 2409 x[5,8,2] + 472 x[6,4,0] + 472 x[6,4,1]
   + 472 x[6,4,2] + 424 x[6,5,0] + 424 x[6,5,1] + 424 x[6,5,2]
   + 1548 x[6,7,0] + 1548 x[6,7,1] + 1548 x[6,7,2] + 2261 x[6,8,0]
   + 2261 x[6,8,1] + 2261 x[6,8,2] + 1898 x[7,4,0] + 1898 x[7,4,1]
   + 1898 x[7,4,2] + 1936 x[7,5,0] + 1936 x[7,5,1] + 1936 x[7,5,2]
   + 1548 x[7,6,0] + 1548 x[7,6,1] + 1548 x[7,6,2] + 2987 x[7,8,0]
   + 2987 x[7,8,1] + 2987 x[7,8,2] + 2568 x[8,4,0] + 2568 x[8,4,1]
   + 2568 x[8,4,2] + 2409 x[8,5,0] + 2409 x[8,5,1] + 2409 x[8,5,2]
   + 2261 x[8,6,0] + 2261 x[8,6,1] + 2261 x[8,6,2] + 2987 x[8,7,0]
   + 2987 x[8,7,1] + 2987 x[8,7,2]
Subject To
 Launch_site[0]: x[0,1,0] + x[0,2,0] + x[0,3,0] - x_k[0] = 0
 Launch_site[1]: x[0,1,1] + x[0,2,1] + x[0,3,1] - x_k[1] = 0
 Launch_site[2]: x[0,1,2] + x[0,2,2] + x[0,3,2] - x_k[2] = 0
 Landing_site[0]: x[4,0,0] + x[5,0,0] + x[6,0,0] + x[7,0,0] + x[8,0,0]
   - x_k[0] = 0
 Landing_site[1]: x[4,0,1] + x[5,0,1] + x[6,0,1] + x[7,0,1] + x[8,0,1]
   - x_k[1] = 0
 Landing_site[2]: x[4,0,2] + x[5,0,2] + x[6,0,2] + x[7,0,2] + x[8,0,2]
   - x_k[2] = 0
 Visit_pizzeria[1]: x[0,1,0] + x[0,1,1] + x[0,1,2] = 1
 Visit_pizzeria[2]: x[0,2,0] + x[0,2,1] + x[0,2,2] = 1
 Visit_pizzeria[3]: x[0,3,0] + x[0,3,1] + x[0,3,2] = 1
 Visit_customer[4]: x[1,4,0] + x[1,4,1] + x[1,4,2] + x[2,4,0] + x[2,4,1]
   + x[2,4,2] + x[3,4,0] + x[3,4,1] + x[3,4,2] + x[5,4,0] + x[5,4,1]
   + x[5,4,2] + x[6,4,0] + x[6,4,1] + x[6,4,2] + x[7,4,0] + x[7,4,1]
   + x[7,4,2] + x[8,4,0] + x[8,4,1] + x[8,4,2] = 1
 Visit_customer[5]: x[1,5,0] + x[1,5,1] + x[1,5,2] + x[2,5,0] + x[2,5,1]
   + x[2,5,2] + x[3,5,0] + x[3,5,1] + x[3,5,2] + x[4,5,0] + x[4,5,1]
   + x[4,5,2] + x[6,5,0] + x[6,5,1] + x[6,5,2] + x[7,5,0] + x[7,5,1]
   + x[7,5,2] + x[8,5,0] + x[8,5,1] + x[8,5,2] = 1
 Visit_customer[6]: x[1,6,0] + x[1,6,1] + x[1,6,2] + x[2,6,0] + x[2,6,1]
   + x[2,6,2] + x[3,6,0] + x[3,6,1] + x[3,6,2] + x[4,6,0] + x[4,6,1]
   + x[4,6,2] + x[5,6,0] + x[5,6,1] + x[5,6,2] + x[7,6,0] + x[7,6,1]
   + x[7,6,2] + x[8,6,0] + x[8,6,1] + x[8,6,2] = 1
 Visit_customer[7]: x[1,7,0] + x[1,7,1] + x[1,7,2] + x[2,7,0] + x[2,7,1]
   + x[2,7,2] + x[3,7,0] + x[3,7,1] + x[3,7,2] + x[4,7,0] + x[4,7,1]
   + x[4,7,2] + x[5,7,0] + x[5,7,1] + x[5,7,2] + x[6,7,0] + x[6,7,1]
   + x[6,7,2] + x[8,7,0] + x[8,7,1] + x[8,7,2] = 1
 Visit_customer[8]: x[1,8,0] + x[1,8,1] + x[1,8,2] + x[2,8,0] + x[2,8,1]
   + x[2,8,2] + x[3,8,0] + x[3,8,1] + x[3,8,2] + x[4,8,0] + x[4,8,1]
   + x[4,8,2] + x[5,8,0] + x[5,8,1] + x[5,8,2] + x[6,8,0] + x[6,8,1]
   + x[6,8,2] + x[7,8,0] + x[7,8,1] + x[7,8,2] = 1
 Leave_customer[4,0]: x[1,4,0] + x[2,4,0] + x[3,4,0] - x[4,5,0] - x[4,6,0]
   - x[4,7,0] - x[4,8,0] + x[5,4,0] + x[6,4,0] + x[7,4,0] + x[8,4,0]
   - x[4,0,0] = 0
 Leave_customer[4,1]: x[1,4,1] + x[2,4,1] + x[3,4,1] - x[4,5,1] - x[4,6,1]
   - x[4,7,1] - x[4,8,1] + x[5,4,1] + x[6,4,1] + x[7,4,1] + x[8,4,1]
   - x[4,0,1] = 0
 Leave_customer[4,2]: x[1,4,2] + x[2,4,2] + x[3,4,2] - x[4,5,2] - x[4,6,2]
   - x[4,7,2] - x[4,8,2] + x[5,4,2] + x[6,4,2] + x[7,4,2] + x[8,4,2]
   - x[4,0,2] = 0
 Leave_customer[5,0]: x[1,5,0] + x[2,5,0] + x[3,5,0] + x[4,5,0] - x[5,4,0]
   - x[5,6,0] - x[5,7,0] - x[5,8,0] + x[6,5,0] + x[7,5,0] + x[8,5,0]
   - x[5,0,0] = 0
 Leave_customer[5,1]: x[1,5,1] + x[2,5,1] + x[3,5,1] + x[4,5,1] - x[5,4,1]
   - x[5,6,1] - x[5,7,1] - x[5,8,1] + x[6,5,1] + x[7,5,1] + x[8,5,1]
   - x[5,0,1] = 0
 Leave_customer[5,2]: x[1,5,2] + x[2,5,2] + x[3,5,2] + x[4,5,2] - x[5,4,2]
   - x[5,6,2] - x[5,7,2] - x[5,8,2] + x[6,5,2] + x[7,5,2] + x[8,5,2]
   - x[5,0,2] = 0
 Leave_customer[6,0]: x[1,6,0] + x[2,6,0] + x[3,6,0] + x[4,6,0] + x[5,6,0]
   - x[6,4,0] - x[6,5,0] - x[6,7,0] - x[6,8,0] + x[7,6,0] + x[8,6,0]
   - x[6,0,0] = 0
 Leave_customer[6,1]: x[1,6,1] + x[2,6,1] + x[3,6,1] + x[4,6,1] + x[5,6,1]
   - x[6,4,1] - x[6,5,1] - x[6,7,1] - x[6,8,1] + x[7,6,1] + x[8,6,1]
   - x[6,0,1] = 0
 Leave_customer[6,2]: x[1,6,2] + x[2,6,2] + x[3,6,2] + x[4,6,2] + x[5,6,2]
   - x[6,4,2] - x[6,5,2] - x[6,7,2] - x[6,8,2] + x[7,6,2] + x[8,6,2]
   - x[6,0,2] = 0
 Leave_customer[7,0]: x[1,7,0] + x[2,7,0] + x[3,7,0] + x[4,7,0] + x[5,7,0]
   + x[6,7,0] - x[7,4,0] - x[7,5,0] - x[7,6,0] - x[7,8,0] + x[8,7,0]
   - x[7,0,0] = 0
 Leave_customer[7,1]: x[1,7,1] + x[2,7,1] + x[3,7,1] + x[4,7,1] + x[5,7,1]
   + x[6,7,1] - x[7,4,1] - x[7,5,1] - x[7,6,1] - x[7,8,1] + x[8,7,1]
   - x[7,0,1] = 0
 Leave_customer[7,2]: x[1,7,2] + x[2,7,2] + x[3,7,2] + x[4,7,2] + x[5,7,2]
   + x[6,7,2] - x[7,4,2] - x[7,5,2] - x[7,6,2] - x[7,8,2] + x[8,7,2]
   - x[7,0,2] = 0
 Leave_customer[8,0]: x[1,8,0] + x[2,8,0] + x[3,8,0] + x[4,8,0] + x[5,8,0]
   + x[6,8,0] + x[7,8,0] - x[8,4,0] - x[8,5,0] - x[8,6,0] - x[8,7,0]
   - x[8,0,0] = 0
 Leave_customer[8,1]: x[1,8,1] + x[2,8,1] + x[3,8,1] + x[4,8,1] + x[5,8,1]
   + x[6,8,1] + x[7,8,1] - x[8,4,1] - x[8,5,1] - x[8,6,1] - x[8,7,1]
   - x[8,0,1] = 0
 Leave_customer[8,2]: x[1,8,2] + x[2,8,2] + x[3,8,2] + x[4,8,2] + x[5,8,2]
   + x[6,8,2] + x[7,8,2] - x[8,4,2] - x[8,5,2] - x[8,6,2] - x[8,7,2]
   - x[8,0,2] = 0
 Leave_pizzeria[1,0]: - x[0,1,0] + x[1,4,0] + x[1,5,0] + x[1,6,0]
   + x[1,7,0] + x[1,8,0] = 0
 Leave_pizzeria[1,1]: - x[0,1,1] + x[1,4,1] + x[1,5,1] + x[1,6,1]
   + x[1,7,1] + x[1,8,1] = 0
 Leave_pizzeria[1,2]: - x[0,1,2] + x[1,4,2] + x[1,5,2] + x[1,6,2]
   + x[1,7,2] + x[1,8,2] = 0
 Leave_pizzeria[2,0]: - x[0,2,0] + x[2,4,0] + x[2,5,0] + x[2,6,0]
   + x[2,7,0] + x[2,8,0] = 0
 Leave_pizzeria[2,1]: - x[0,2,1] + x[2,4,1] + x[2,5,1] + x[2,6,1]
   + x[2,7,1] + x[2,8,1] = 0
 Leave_pizzeria[2,2]: - x[0,2,2] + x[2,4,2] + x[2,5,2] + x[2,6,2]
   + x[2,7,2] + x[2,8,2] = 0
 Leave_pizzeria[3,0]: - x[0,3,0] + x[3,4,0] + x[3,5,0] + x[3,6,0]
   + x[3,7,0] + x[3,8,0] = 0
 Leave_pizzeria[3,1]: - x[0,3,1] + x[3,4,1] + x[3,5,1] + x[3,6,1]
   + x[3,7,1] + x[3,8,1] = 0
 Leave_pizzeria[3,2]: - x[0,3,2] + x[3,4,2] + x[3,5,2] + x[3,6,2]
   + x[3,7,2] + x[3,8,2] = 0
 time_bound_on_pizzeria[1]: - tau[1] <= -600
 time_bound_on_pizzeria[2]: - tau[2] <= -1200
 time_bound_on_pizzeria[3]: - tau[3] <= -1800
 Time_window_pizzeria[1,0]: 1e+06 x[0,1,0] - tau[1] <= 999836
 Time_window_pizzeria[1,1]: 1e+06 x[0,1,1] - tau[1] <= 999836
 Time_window_pizzeria[1,2]: 1e+06 x[0,1,2] - tau[1] <= 999836
 Time_window_pizzeria[2,0]: 1e+06 x[0,2,0] - tau[2] <= 999779.2
 Time_window_pizzeria[2,1]: 1e+06 x[0,2,1] - tau[2] <= 999779.2
 Time_window_pizzeria[2,2]: 1e+06 x[0,2,2] - tau[2] <= 999779.2
 Time_window_pizzeria[3,0]: 1e+06 x[0,3,0] - tau[3] <= 999752.8
 Time_window_pizzeria[3,1]: 1e+06 x[0,3,1] - tau[3] <= 999752.8
 Time_window_pizzeria[3,2]: 1e+06 x[0,3,2] - tau[3] <= 999752.8
 Capacity[0,1]: 2 x[1,4,0] + 2 x[1,5,0] + 2 x[1,6,0] + 2 x[1,7,0]
   + 2 x[1,8,0] + 2 x[4,5,0] + 2 x[4,6,0] + 2 x[4,7,0] + 2 x[4,8,0]
   + 2 x[5,4,0] + 2 x[5,6,0] + 2 x[5,7,0] + 2 x[5,8,0] + 2 x[6,4,0]
   + 2 x[6,5,0] + 2 x[6,7,0] + 2 x[6,8,0] + 2 x[7,4,0] + 2 x[7,5,0]
   + 2 x[7,6,0] + 2 x[7,8,0] + 2 x[8,4,0] + 2 x[8,5,0] + 2 x[8,6,0]
   + 2 x[8,7,0] <= 10
 Capacity[0,2]: 2 x[2,4,0] + 2 x[2,5,0] + 2 x[2,6,0] + 2 x[2,7,0]
   + 2 x[2,8,0] + 2 x[4,5,0] + 2 x[4,6,0] + 2 x[4,7,0] + 2 x[4,8,0]
   + 2 x[5,4,0] + 2 x[5,6,0] + 2 x[5,7,0] + 2 x[5,8,0] + 2 x[6,4,0]
   + 2 x[6,5,0] + 2 x[6,7,0] + 2 x[6,8,0] + 2 x[7,4,0] + 2 x[7,5,0]
   + 2 x[7,6,0] + 2 x[7,8,0] + 2 x[8,4,0] + 2 x[8,5,0] + 2 x[8,6,0]
   + 2 x[8,7,0] <= 10
 Capacity[0,3]: 2 x[3,4,0] + 2 x[3,5,0] + 2 x[3,6,0] + 2 x[3,7,0]
   + 2 x[3,8,0] + 2 x[4,5,0] + 2 x[4,6,0] + 2 x[4,7,0] + 2 x[4,8,0]
   + 2 x[5,4,0] + 2 x[5,6,0] + 2 x[5,7,0] + 2 x[5,8,0] + 2 x[6,4,0]
   + 2 x[6,5,0] + 2 x[6,7,0] + 2 x[6,8,0] + 2 x[7,4,0] + 2 x[7,5,0]
   + 2 x[7,6,0] + 2 x[7,8,0] + 2 x[8,4,0] + 2 x[8,5,0] + 2 x[8,6,0]
   + 2 x[8,7,0] <= 10
 Capacity[1,1]: 2 x[1,4,1] + 2 x[1,5,1] + 2 x[1,6,1] + 2 x[1,7,1]
   + 2 x[1,8,1] + 2 x[4,5,1] + 2 x[4,6,1] + 2 x[4,7,1] + 2 x[4,8,1]
   + 2 x[5,4,1] + 2 x[5,6,1] + 2 x[5,7,1] + 2 x[5,8,1] + 2 x[6,4,1]
   + 2 x[6,5,1] + 2 x[6,7,1] + 2 x[6,8,1] + 2 x[7,4,1] + 2 x[7,5,1]
   + 2 x[7,6,1] + 2 x[7,8,1] + 2 x[8,4,1] + 2 x[8,5,1] + 2 x[8,6,1]
   + 2 x[8,7,1] <= 10
 Capacity[1,2]: 2 x[2,4,1] + 2 x[2,5,1] + 2 x[2,6,1] + 2 x[2,7,1]
   + 2 x[2,8,1] + 2 x[4,5,1] + 2 x[4,6,1] + 2 x[4,7,1] + 2 x[4,8,1]
   + 2 x[5,4,1] + 2 x[5,6,1] + 2 x[5,7,1] + 2 x[5,8,1] + 2 x[6,4,1]
   + 2 x[6,5,1] + 2 x[6,7,1] + 2 x[6,8,1] + 2 x[7,4,1] + 2 x[7,5,1]
   + 2 x[7,6,1] + 2 x[7,8,1] + 2 x[8,4,1] + 2 x[8,5,1] + 2 x[8,6,1]
   + 2 x[8,7,1] <= 10
 Capacity[1,3]: 2 x[3,4,1] + 2 x[3,5,1] + 2 x[3,6,1] + 2 x[3,7,1]
   + 2 x[3,8,1] + 2 x[4,5,1] + 2 x[4,6,1] + 2 x[4,7,1] + 2 x[4,8,1]
   + 2 x[5,4,1] + 2 x[5,6,1] + 2 x[5,7,1] + 2 x[5,8,1] + 2 x[6,4,1]
   + 2 x[6,5,1] + 2 x[6,7,1] + 2 x[6,8,1] + 2 x[7,4,1] + 2 x[7,5,1]
   + 2 x[7,6,1] + 2 x[7,8,1] + 2 x[8,4,1] + 2 x[8,5,1] + 2 x[8,6,1]
   + 2 x[8,7,1] <= 10
 Capacity[2,1]: 2 x[1,4,2] + 2 x[1,5,2] + 2 x[1,6,2] + 2 x[1,7,2]
   + 2 x[1,8,2] + 2 x[4,5,2] + 2 x[4,6,2] + 2 x[4,7,2] + 2 x[4,8,2]
   + 2 x[5,4,2] + 2 x[5,6,2] + 2 x[5,7,2] + 2 x[5,8,2] + 2 x[6,4,2]
   + 2 x[6,5,2] + 2 x[6,7,2] + 2 x[6,8,2] + 2 x[7,4,2] + 2 x[7,5,2]
   + 2 x[7,6,2] + 2 x[7,8,2] + 2 x[8,4,2] + 2 x[8,5,2] + 2 x[8,6,2]
   + 2 x[8,7,2] <= 10
 Capacity[2,2]: 2 x[2,4,2] + 2 x[2,5,2] + 2 x[2,6,2] + 2 x[2,7,2]
   + 2 x[2,8,2] + 2 x[4,5,2] + 2 x[4,6,2] + 2 x[4,7,2] + 2 x[4,8,2]
   + 2 x[5,4,2] + 2 x[5,6,2] + 2 x[5,7,2] + 2 x[5,8,2] + 2 x[6,4,2]
   + 2 x[6,5,2] + 2 x[6,7,2] + 2 x[6,8,2] + 2 x[7,4,2] + 2 x[7,5,2]
   + 2 x[7,6,2] + 2 x[7,8,2] + 2 x[8,4,2] + 2 x[8,5,2] + 2 x[8,6,2]
   + 2 x[8,7,2] <= 10
 Capacity[2,3]: 2 x[3,4,2] + 2 x[3,5,2] + 2 x[3,6,2] + 2 x[3,7,2]
   + 2 x[3,8,2] + 2 x[4,5,2] + 2 x[4,6,2] + 2 x[4,7,2] + 2 x[4,8,2]
   + 2 x[5,4,2] + 2 x[5,6,2] + 2 x[5,7,2] + 2 x[5,8,2] + 2 x[6,4,2]
   + 2 x[6,5,2] + 2 x[6,7,2] + 2 x[6,8,2] + 2 x[7,4,2] + 2 x[7,5,2]
   + 2 x[7,6,2] + 2 x[7,8,2] + 2 x[8,4,2] + 2 x[8,5,2] + 2 x[8,6,2]
   + 2 x[8,7,2] <= 10
Bounds
Binaries
 x[0,1,0] x[0,1,1] x[0,1,2] x[0,2,0] x[0,2,1] x[0,2,2] x[0,3,0] x[0,3,1]
 x[0,3,2] x[1,4,0] x[1,4,1] x[1,4,2] x[1,5,0] x[1,5,1] x[1,5,2] x[1,6,0]
 x[1,6,1] x[1,6,2] x[1,7,0] x[1,7,1] x[1,7,2] x[1,8,0] x[1,8,1] x[1,8,2]
 x[2,4,0] x[2,4,1] x[2,4,2] x[2,5,0] x[2,5,1] x[2,5,2] x[2,6,0] x[2,6,1]
 x[2,6,2] x[2,7,0] x[2,7,1] x[2,7,2] x[2,8,0] x[2,8,1] x[2,8,2] x[3,4,0]
 x[3,4,1] x[3,4,2] x[3,5,0] x[3,5,1] x[3,5,2] x[3,6,0] x[3,6,1] x[3,6,2]
 x[3,7,0] x[3,7,1] x[3,7,2] x[3,8,0] x[3,8,1] x[3,8,2] x[4,5,0] x[4,5,1]
 x[4,5,2] x[4,6,0] x[4,6,1] x[4,6,2] x[4,7,0] x[4,7,1] x[4,7,2] x[4,8,0]
 x[4,8,1] x[4,8,2] x[5,4,0] x[5,4,1] x[5,4,2] x[5,6,0] x[5,6,1] x[5,6,2]
 x[5,7,0] x[5,7,1] x[5,7,2] x[5,8,0] x[5,8,1] x[5,8,2] x[6,4,0] x[6,4,1]
 x[6,4,2] x[6,5,0] x[6,5,1] x[6,5,2] x[6,7,0] x[6,7,1] x[6,7,2] x[6,8,0]
 x[6,8,1] x[6,8,2] x[7,4,0] x[7,4,1] x[7,4,2] x[7,5,0] x[7,5,1] x[7,5,2]
 x[7,6,0] x[7,6,1] x[7,6,2] x[7,8,0] x[7,8,1] x[7,8,2] x[8,4,0] x[8,4,1]
 x[8,4,2] x[8,5,0] x[8,5,1] x[8,5,2] x[8,6,0] x[8,6,1] x[8,6,2] x[8,7,0]
 x[8,7,1] x[8,7,2] x[4,0,0] x[4,0,1] x[4,0,2] x[5,0,0] x[5,0,1] x[5,0,2]
 x[6,0,0] x[6,0,1] x[6,0,2] x[7,0,0] x[7,0,1] x[7,0,2] x[8,0,0] x[8,0,1]
 x[8,0,2] x_k[0] x_k[1] x_k[2]
Generals
 tau[1] tau[2] tau[3]
End
